968.92,58.44,70.04
857.89,66.0,79.11
1122.07,50.47,60.48
1013.43,55.88,66.97
993.87,56.97,68.28
1030.01,54.98,65.89
973.44,58.17,69.72
1034.6,54.73,65.6
971.7,58.27,69.84
999.44,56.66,67.9
1044.36,54.22,64.98
1042.02,54.34,65.13
1011.34,55.99,67.1
996.66,56.82,68.09
1056.16,53.61,64.26
976.96,57.96,69.47
913.47,61.99,74.29
957.11,59.16,70.91
1176.34,48.14,57.69
1038.8,54.51,65.33
